%%% static parameters %%%
timespan = 1;
Clients_N = [4000];
Demand_W = [15];
Lt0 = [4];
Lt1 = [4];
SS_ = [0.85];
DS_D = [20];
K = [200];
MA = [500];
HC = [0.05];
%%% dynamic parameters %%%
lost_ratio_sales_ret_th = 0.0005829027584952745;
lost_ratio_sales_ret_w = 17;
lost_ratio_sales_dis_th = 1.2624823733431212e-05;
lost_ratio_sales_dis_w = 63;
lost_ratio_sales_fac_th = 0.0005355905283225755;
lost_ratio_sales_fac_w = 41;
stock_customer_MA_mean_relative_th = 0.7913896317262458;
stock_customer_MA_mean_relative_w = 20;
stock_distributor_MA_mean_relative_th = 0.12280446818957202;
stock_distributor_MA_mean_relative_w = 3;
stock_retailer_MA_mean_relative_th = 0.15533237579205394;
stock_retailer_MA_mean_relative_w = 25;
stock_factory_MA_mean_relative_th = 0.7766944909744155;
stock_factory_MA_mean_relative_w = 90;
